<number of tasks>
45

<cycle time>
110

<task times>
1 9
2 9
3 10
4 10
5 17
6 17
7 13
8 13
9 20
10 20
11 10
12 11
13 6
14 22
15 11
16 19
17 12
18 3
19 7
20 4
21 55
22 14
23 27
24 29
25 26
26 6
27 5
28 24
29 4
30 5
31 7
32 4
33 15
34 3
35 7
36 9
37 4
38 7
39 5
40 4
41 21
42 12
43 6
44 5
45 5

<precedence relations>
1,3
1,7
2,4
2,8
3,5
4,6
5,9
6,10
7,9
7,14
8,10
8,14
9,41
10,41
11,13
12,13
12,37
13,14
13,15
14,17
14,25
14,29
14,30
14,31
14,32
15,16
15,18
15,23
15,24
16,19
17,26
17,27
18,19
19,20
19,33
20,21
21,22
22,28
23,33
24,33
25,26
26,38
27,28
27,33
28,38
29,41
30,41
31,41
32,41
33,34
33,35
33,36
34,38
35,40
36,38
37,43
38,40
39,41
40,41
41,42
42,44
42,45

<setup times forward>
1,3:1
1,4:1
1,6:1
1,16:1
1,19:1
1,21:1
1,22:1
1,24:1
2,3:1
2,4:1
2,5:1
2,16:1
2,19:1
2,21:1
2,22:1
2,24:1
3,2:1
3,7:1
3,8:1
3,10:1
3,11:1
3,12:1
3,13:1
3,14:1
3,15:1
3,17:1
3,18:1
3,20:1
3,23:1
3,26:1
3,27:1
3,28:1
3,30:1
3,31:1
3,34:1
3,35:1
3,36:1
3,37:1
3,38:1
3,39:1
3,40:1
3,43:1
4,1:1
4,7:1
4,8:1
4,9:1
4,11:1
4,12:1
4,13:1
4,14:1
4,15:1
4,17:1
4,18:1
4,20:1
4,23:1
4,26:1
4,27:1
4,28:1
4,30:1
4,31:1
4,34:1
4,35:1
4,36:1
4,37:1
4,38:1
4,39:1
4,40:1
4,43:1
5,2:1
5,7:1
5,8:1
5,9:1
5,10:1
5,11:1
5,12:1
5,13:1
5,14:1
5,15:1
5,17:1
5,18:1
5,20:1
5,23:1
5,26:1
5,27:1
5,28:1
5,30:1
5,31:1
5,34:1
5,35:1
5,36:1
5,37:1
5,38:1
5,39:1
5,40:1
5,43:1
6,1:1
6,7:1
6,8:1
6,9:1
6,10:1
6,11:1
6,12:1
6,13:1
6,14:1
6,15:1
6,17:1
6,18:1
6,20:1
6,23:1
6,26:1
6,27:1
6,28:1
6,30:1
6,31:1
6,34:1
6,35:1
6,36:1
6,37:1
6,38:1
6,39:1
6,40:1
6,43:1
7,3:1
7,4:1
7,5:1
7,6:1
7,16:1
7,19:1
7,21:1
7,22:1
7,24:1
8,3:1
8,4:1
8,5:1
8,6:1
8,16:1
8,19:1
8,21:1
8,22:1
8,24:1
9,4:1
9,6:1
9,16:1
9,19:1
9,21:1
9,22:1
9,24:1
9,25:1
9,29:1
9,32:1
9,33:1
10,3:1
10,5:1
10,16:1
10,19:1
10,21:1
10,22:1
10,24:1
10,25:1
10,29:1
10,32:1
10,33:1
11,3:1
11,4:1
11,5:1
11,6:1
12,3:1
12,4:1
12,5:1
12,6:1
13,3:1
13,4:1
13,5:1
13,6:1
14,3:1
14,4:1
14,5:1
14,6:1
14,16:1
14,19:1
14,21:1
14,22:1
14,24:1
14,25:1
14,29:1
14,32:1
15,3:1
15,4:1
15,5:1
15,6:1
15,16:1
15,24:1
15,25:1
15,29:1
15,32:1
16,1:1
16,2:1
16,7:1
16,8:1
16,9:1
16,10:1
16,14:1
16,17:1
16,18:1
16,23:1
16,26:1
16,27:1
16,30:1
16,31:1
16,37:1
16,39:1
16,43:1
17,3:1
17,4:1
17,5:1
17,6:1
17,16:1
17,19:1
17,21:1
17,22:1
17,24:1
17,25:1
17,29:1
17,32:1
18,3:1
18,4:1
18,5:1
18,6:1
18,16:1
18,19:1
18,24:1
18,25:1
18,29:1
18,32:1
19,1:1
19,2:1
19,7:1
19,8:1
19,9:1
19,10:1
19,14:1
19,17:1
19,20:1
19,23:1
19,26:1
19,27:1
19,30:1
19,31:1
19,37:1
19,39:1
19,43:1
20,3:1
20,4:1
20,5:1
20,6:1
20,21:1
20,24:1
20,25:1
20,29:1
20,32:1
20,33:1
21,1:1
21,2:1
21,7:1
21,8:1
21,9:1
21,10:1
21,14:1
21,17:1
21,23:1
21,26:1
21,27:1
21,30:1
21,31:1
21,34:1
21,35:1
21,36:1
21,37:1
21,39:1
21,43:1
22,1:1
22,2:1
22,7:1
22,8:1
22,9:1
22,10:1
22,14:1
22,17:1
22,23:1
22,26:1
22,27:1
22,28:1
22,30:1
22,31:1
22,34:1
22,35:1
22,36:1
22,37:1
22,39:1
22,43:1
23,3:1
23,4:1
23,5:1
23,6:1
23,16:1
23,19:1
23,21:1
23,22:1
23,24:1
23,25:1
23,29:1
23,32:1
23,33:1
24,1:1
24,2:1
24,7:1
24,8:1
24,9:1
24,10:1
24,14:1
24,17:1
24,18:1
24,20:1
24,23:1
24,26:1
24,27:1
24,28:1
24,30:1
24,31:1
24,37:1
24,39:1
24,43:1
25,9:1
25,10:1
25,15:1
25,17:1
25,18:1
25,20:1
25,23:1
25,26:1
25,27:1
25,28:1
25,30:1
25,31:1
25,34:1
25,35:1
25,36:1
25,37:1
25,39:1
25,43:1
26,3:1
26,4:1
26,5:1
26,6:1
26,16:1
26,19:1
26,21:1
26,22:1
26,24:1
26,29:1
26,32:1
26,33:1
27,3:1
27,4:1
27,5:1
27,6:1
27,16:1
27,19:1
27,21:1
27,22:1
27,24:1
27,25:1
27,29:1
27,32:1
27,33:1
28,3:1
28,4:1
28,5:1
28,6:1
28,24:1
28,25:1
28,29:1
28,32:1
28,33:1
29,9:1
29,10:1
29,15:1
29,17:1
29,18:1
29,20:1
29,23:1
29,26:1
29,27:1
29,28:1
29,30:1
29,31:1
29,34:1
29,35:1
29,36:1
29,37:1
29,38:1
29,39:1
29,40:1
29,41:1
29,43:1
30,3:1
30,4:1
30,5:1
30,6:1
30,16:1
30,19:1
30,21:1
30,22:1
30,24:1
30,25:1
30,29:1
30,32:1
30,33:1
31,3:1
31,4:1
31,5:1
31,6:1
31,16:1
31,19:1
31,21:1
31,22:1
31,24:1
31,25:1
31,29:1
31,32:1
31,33:1
32,9:1
32,10:1
32,15:1
32,17:1
32,18:1
32,20:1
32,23:1
32,26:1
32,27:1
32,28:1
32,30:1
32,31:1
32,34:1
32,35:1
32,36:1
32,37:1
32,38:1
32,39:1
32,40:1
32,41:1
32,43:1
33,9:1
33,10:1
33,20:1
33,26:1
33,28:1
33,30:1
33,31:1
33,34:1
33,35:1
33,36:1
33,37:1
33,39:1
33,43:1
34,3:1
34,4:1
34,5:1
34,6:1
34,21:1
34,22:1
34,25:1
34,29:1
34,32:1
35,3:1
35,4:1
35,5:1
35,6:1
35,21:1
35,22:1
35,25:1
35,29:1
35,32:1
36,3:1
36,4:1
36,5:1
36,6:1
36,21:1
36,22:1
36,25:1
36,29:1
36,32:1
37,3:1
37,4:1
37,5:1
37,6:1
37,16:1
37,19:1
37,21:1
37,22:1
37,24:1
37,25:1
37,29:1
37,32:1
37,33:1
38,3:1
38,4:1
38,5:1
38,6:1
38,29:1
38,32:1
39,3:1
39,4:1
39,5:1
39,6:1
39,16:1
39,19:1
39,21:1
39,22:1
39,24:1
39,25:1
39,29:1
39,32:1
39,33:1
40,3:1
40,4:1
40,5:1
40,6:1
40,29:1
40,32:1
43,3:1
43,4:1
43,5:1
43,6:1
43,16:1
43,19:1
43,21:1
43,22:1
43,24:1
43,25:1
43,29:1
43,32:1
43,33:1

<setup times backward>
3,1:1
3,2:1
3,7:1
3,8:1
3,10:1
3,11:1
3,12:1
3,13:1
3,14:1
3,15:1
3,17:1
3,18:1
3,20:1
3,23:1
3,26:1
3,27:1
3,28:1
3,30:1
3,31:1
3,34:1
3,35:1
3,36:1
3,37:1
3,38:1
3,39:1
3,40:1
3,43:1
4,1:1
4,2:1
4,7:1
4,8:1
4,9:1
4,11:1
4,12:1
4,13:1
4,14:1
4,15:1
4,17:1
4,18:1
4,20:1
4,23:1
4,26:1
4,27:1
4,28:1
4,30:1
4,31:1
4,34:1
4,35:1
4,36:1
4,37:1
4,38:1
4,39:1
4,40:1
4,43:1
5,1:1
5,2:1
5,7:1
5,8:1
5,10:1
5,11:1
5,12:1
5,13:1
5,14:1
5,15:1
5,17:1
5,18:1
5,20:1
5,23:1
5,26:1
5,27:1
5,28:1
5,30:1
5,31:1
5,34:1
5,35:1
5,36:1
5,37:1
5,38:1
5,39:1
5,40:1
5,43:1
6,1:1
6,2:1
6,7:1
6,8:1
6,9:1
6,11:1
6,12:1
6,13:1
6,14:1
6,15:1
6,17:1
6,18:1
6,20:1
6,23:1
6,26:1
6,27:1
6,28:1
6,30:1
6,31:1
6,34:1
6,35:1
6,36:1
6,37:1
6,38:1
6,39:1
6,40:1
6,43:1
16,1:1
16,2:1
16,7:1
16,8:1
16,9:1
16,10:1
16,11:1
16,12:1
16,13:1
16,14:1
16,15:1
16,17:1
16,18:1
16,23:1
16,26:1
16,27:1
16,30:1
16,31:1
16,37:1
16,39:1
16,43:1
19,1:1
19,2:1
19,7:1
19,8:1
19,9:1
19,10:1
19,11:1
19,12:1
19,13:1
19,14:1
19,15:1
19,17:1
19,18:1
19,23:1
19,26:1
19,27:1
19,30:1
19,31:1
19,37:1
19,39:1
19,43:1
21,1:1
21,2:1
21,7:1
21,8:1
21,9:1
21,10:1
21,11:1
21,12:1
21,13:1
21,14:1
21,15:1
21,17:1
21,18:1
21,20:1
21,23:1
21,26:1
21,27:1
21,30:1
21,31:1
21,34:1
21,35:1
21,36:1
21,37:1
21,39:1
21,43:1
22,1:1
22,2:1
22,7:1
22,8:1
22,9:1
22,10:1
22,11:1
22,12:1
22,13:1
22,14:1
22,15:1
22,17:1
22,18:1
22,20:1
22,23:1
22,26:1
22,27:1
22,30:1
22,31:1
22,34:1
22,35:1
22,36:1
22,37:1
22,39:1
22,43:1
24,1:1
24,2:1
24,7:1
24,8:1
24,9:1
24,10:1
24,11:1
24,12:1
24,13:1
24,14:1
24,15:1
24,17:1
24,18:1
24,20:1
24,23:1
24,26:1
24,27:1
24,28:1
24,30:1
24,31:1
24,37:1
24,39:1
24,43:1
25,1:1
25,2:1
25,7:1
25,8:1
25,9:1
25,10:1
25,11:1
25,12:1
25,13:1
25,14:1
25,15:1
25,17:1
25,18:1
25,20:1
25,23:1
25,27:1
25,28:1
25,30:1
25,31:1
25,34:1
25,35:1
25,36:1
25,37:1
25,39:1
25,43:1
29,1:1
29,2:1
29,7:1
29,8:1
29,9:1
29,10:1
29,11:1
29,12:1
29,13:1
29,14:1
29,15:1
29,17:1
29,18:1
29,20:1
29,23:1
29,26:1
29,27:1
29,28:1
29,30:1
29,31:1
29,34:1
29,35:1
29,36:1
29,37:1
29,38:1
29,39:1
29,40:1
29,43:1
32,1:1
32,2:1
32,7:1
32,8:1
32,9:1
32,10:1
32,11:1
32,12:1
32,13:1
32,14:1
32,15:1
32,17:1
32,18:1
32,20:1
32,23:1
32,26:1
32,27:1
32,28:1
32,30:1
32,31:1
32,34:1
32,35:1
32,36:1
32,37:1
32,38:1
32,39:1
32,40:1
32,43:1
33,1:1
33,2:1
33,7:1
33,8:1
33,9:1
33,10:1
33,11:1
33,12:1
33,13:1
33,14:1
33,15:1
33,17:1
33,18:1
33,20:1
33,23:1
33,26:1
33,27:1
33,28:1
33,30:1
33,31:1
33,37:1
33,39:1
33,43:1

<end>

<optimal SALBP-1 value>
6


<rand seed>
467321153

<Lower Bounds>
Lm1=6
Lms1=6
Lm2=1
Lm3=1
Lm4=6
Best=6

<Optimal Stations (Iterations: 10)>
6
